c description: Random 10-CNF over 10 variables and 1 clauses
c generator: CNFgen (0.9.0)
c copyright: (C) 2012-2020 Massimo Lauria <massimo.lauria@uniroma1.it>
c url: https://massimolauria.net/cnfgen
c command line: cnfgen -o ./sat_database/yes/tiny/10/cnf.cnf randkcnf 10 10 1
c
p cnf 10 1
1 -2 -3 4 -5 6 7 -8 9 -10 0
